(set-logic QF_S)
(declare-fun var0 () String)
(declare-fun var1 () String)
(declare-fun var2 () String)
(declare-fun var3 () String)
(declare-fun var4 () String)
(assert (= var0 (str.++ "R""VNg" (str.++ var1 (str.++ var2 "")))))
(assert (= var0 (str.++ "x:J6S" (str.++ var3 (str.++ var4 "")))))
(check-sat)